clear
variable dump_file string "/home/landeiro/Documents/Enseignement/Doctorat/TP_2025/tmp/trj_lammps000001f6rgt3_2.bin"
variable data_file string "/home/landeiro/Documents/Enseignement/Doctorat/TP_2025/tmp/data_lammps000001vden9zq9"
atom_style atomic 
units metal
boundary p p p 
box tilt large 
atom_modify sort 0 0.0 

read_data /home/landeiro/Documents/Enseignement/Doctorat/TP_2025/tmp/data_lammps000001vden9zq9

### interactions
pair_style eam/alloy 
pair_coeff * * Potential/NiAlH_jea.eam.alloy H Ni  
mass 1 1.008000 
mass 2 58.693400 

### run
fix fix_nve all nve
fix nvt all nvt temp 750.0 750.0 100.0
dump dump_all all custom 1 /home/landeiro/Documents/Enseignement/Doctorat/TP_2025/tmp/trj_lammps000001f6rgt3_2.bin id type x y z vx vy vz fx fy fz
thermo_style custom step temp press cpu pxx pyy pzz pxy pxz pyz ke pe etotal vol lx ly lz atoms
thermo_modify flush yes format float %23.16g
thermo 1
timestep 0.001
run 0
print "__end_of_ase_invoked_calculation__" 
log /dev/stdout
